n=214;
k_min=7;
k_max=7;
M=[| 161, 143, 153, 130, 144, 123, 144
 | 163, 139, 151, 125, 146, 122, 150
 | 166, 139, 150, 124, 145, 121, 151
 | 165, 142, 152, 126, 144, 121, 147
 | 164, 141, 151, 126, 144, 121, 150
 | 163, 142, 150, 127, 143, 122, 148
 | 163, 142, 151, 127, 143, 121, 150
 | 162, 143, 151, 127, 142, 121, 150
 | 163, 140, 154, 126, 146, 122, 147
 | 164, 143, 152, 128, 142, 120, 148
 | 163, 143, 150, 127, 142, 122, 149
 | 165, 144, 152, 128, 141, 120, 147
 | 163, 142, 150, 127, 143, 122, 150
 | 163, 144, 151, 128, 141, 120, 149
 | 164, 145, 151, 129, 140, 120, 148
 | 164, 144, 151, 128, 141, 121, 149
 | 164, 145, 152, 129, 140, 120, 147
 | 161, 142, 155, 130, 143, 122, 143
 | 163, 142, 155, 129, 142, 119, 146
 | 164, 143, 153, 127, 142, 120, 147
 | 164, 144, 152, 128, 141, 120, 146
 | 159, 141, 154, 130, 143, 122, 146
 | 165, 145, 153, 129, 140, 120, 146
 | 165, 144, 152, 128, 140, 120, 147
 | 164, 142, 153, 127, 142, 120, 148
 | 164, 144, 152, 128, 141, 120, 148
 | 165, 142, 153, 127, 142, 120, 147
 | 164, 144, 152, 128, 141, 120, 148
 | 164, 145, 151, 129, 140, 120, 147
 | 164, 143, 153, 128, 141, 120, 148
 | 165, 145, 152, 129, 139, 120, 146
 | 164, 144, 152, 129, 140, 120, 148
 | 164, 144, 152, 128, 141, 120, 147
 | 163, 145, 151, 129, 140, 120, 148
 | 165, 145, 152, 129, 139, 119, 146
 | 164, 143, 154, 127, 141, 119, 147
 | 166, 141, 156, 127, 143, 120, 144
 | 166, 145, 152, 128, 139, 119, 146
 | 163, 143, 155, 132, 140, 120, 143
 | 163, 143, 155, 132, 140, 120, 143
 | 165, 145, 152, 129, 139, 119, 147
 | 164, 145, 152, 129, 139, 120, 148
 | 164, 143, 154, 127, 141, 119, 147
 | 166, 145, 156, 132, 138, 118, 141
 | 164, 145, 153, 129, 139, 119, 146
 | 164, 143, 157, 129, 141, 120, 143
 | 162, 145, 155, 129, 140, 119, 147
 | 164, 145, 156, 133, 138, 119, 142
 | 162, 148, 156, 135, 136, 118, 141
 | 164, 143, 157, 128, 141, 119, 144
 | 164, 146, 156, 134, 137, 119, 141
 | 162, 146, 157, 130, 139, 119, 144
 | 160, 145, 157, 130, 138, 118, 148
 | 160, 146, 157, 131, 137, 118, 147
 | 160, 146, 156, 130, 137, 118, 148
 | 159, 149, 152, 133, 135, 119, 149
 | 163, 143, 152, 128, 142, 121, 148
 | 164, 144, 152, 128, 141, 120, 148
 | 163, 141, 151, 126, 145, 122, 150
 | 165, 141, 152, 126, 143, 121, 148
 | 162, 143, 155, 129, 141, 119, 148
 | 162, 141, 155, 128, 145, 121, 144
 | 164, 145, 156, 132, 139, 119, 142
 | 163, 144, 156, 132, 140, 121, 142
 | 164, 146, 156, 132, 138, 118, 142
 | 162, 145, 157, 131, 139, 118, 143
 | 161, 149, 156, 134, 136, 118, 142
 | 161, 149, 156, 134, 136, 118, 142
 | 161, 148, 157, 134, 136, 118, 142
 | 162, 149, 157, 135, 135, 118, 141
 | 166, 135, 149, 123, 151, 124, 148
 | 164, 140, 153, 127, 145, 122, 145
 | 166, 140, 149, 125, 144, 122, 149
 | 164, 140, 151, 125, 145, 122, 149
 | 165, 141, 150, 126, 144, 122, 149
 | 165, 141, 150, 126, 144, 122, 149
 | 163, 140, 152, 126, 146, 123, 147
 | 164, 142, 151, 126, 144, 122, 148
 | 163, 139, 152, 125, 145, 121, 151
 | 163, 142, 150, 127, 144, 123, 148
 | 161, 142, 150, 127, 145, 124, 147
 | 165, 140, 150, 125, 144, 122, 151
 | 164, 141, 152, 126, 144, 121, 149
 | 164, 141, 151, 126, 144, 122, 148
 | 158, 136, 149, 123, 153, 129, 149
 | 165, 141, 152, 126, 144, 120, 148
 | 164, 141, 151, 126, 143, 121, 151
 | 164, 140, 152, 125, 145, 122, 148
 | 164, 142, 151, 127, 143, 121, 148
 | 162, 143, 150, 128, 143, 123, 148
 | 162, 145, 154, 130, 140, 121, 144
 | 163, 143, 151, 128, 142, 120, 149
 | 161, 144, 152, 129, 141, 119, 151
 | 163, 142, 152, 127, 142, 120, 150
 | 163, 144, 151, 128, 141, 121, 149
 | 164, 142, 155, 127, 142, 120, 146
 | 161, 146, 155, 131, 139, 120, 144
 | 161, 148, 151, 132, 137, 120, 147
 | 161, 145, 152, 129, 139, 121, 149
 | 162, 145, 154, 129, 139, 119, 148
 | 161, 146, 153, 130, 138, 119, 149
 | 159, 150, 155, 133, 135, 119, 144
 | 157, 150, 152, 135, 134, 119, 149
 | 155, 149, 153, 143, 134, 123, 139
 | 157, 148, 158, 139, 134, 120, 141
 | 138, 156, 146, 166, 124, 125, 141
 | 141, 149, 146, 152, 134, 133, 141
 | 142, 153, 144, 154, 131, 131, 141
 | 142, 158, 155, 146, 127, 120, 149
 | 143, 152, 152, 146, 130, 123, 151
 | 141, 154, 145, 158, 128, 128, 142
 | 141, 154, 145, 158, 129, 128, 142
 | 142, 157, 145, 157, 127, 126, 142
 | 164, 141, 152, 126, 145, 122, 147
 | 163, 143, 152, 128, 143, 122, 146
 | 163, 141, 152, 127, 145, 122, 146
 | 163, 142, 152, 127, 145, 122, 146
 | 163, 139, 151, 125, 148, 124, 146
 | 163, 141, 152, 126, 145, 122, 147
 | 163, 140, 152, 125, 146, 123, 148
 | 164, 142, 153, 127, 143, 121, 146
 | 164, 142, 151, 126, 144, 122, 148
 | 164, 141, 151, 126, 144, 121, 149
 | 163, 140, 152, 125, 146, 122, 148
 | 164, 143, 153, 128, 142, 120, 147
 | 166, 143, 153, 128, 142, 120, 145
 | 164, 144, 153, 128, 141, 120, 146
 | 155, 146, 166, 134, 134, 117, 144
 | 155, 147, 162, 133, 135, 118, 146
 | 149, 150, 158, 141, 131, 120, 147
 | 146, 156, 155, 146, 128, 119, 147
 | 141, 160, 148, 154, 127, 125, 142
 | 163, 141, 152, 127, 145, 122, 147
 | 166, 139, 152, 126, 146, 122, 144
 | 164, 141, 151, 126, 144, 122, 148
 | 163, 142, 153, 128, 144, 122, 145
 | 163, 143, 151, 128, 142, 121, 148
 | 164, 142, 151, 127, 143, 122, 148
 | 164, 142, 149, 127, 143, 122, 150
 | 164, 142, 150, 126, 143, 122, 149
 | 164, 141, 152, 126, 145, 122, 147
 | 164, 143, 152, 127, 142, 120, 148
 | 163, 143, 151, 127, 143, 122, 148
 | 163, 142, 152, 127, 144, 122, 147
 | 163, 145, 154, 129, 139, 119, 147
 | 164, 144, 153, 129, 141, 121, 145
 | 162, 143, 154, 128, 142, 119, 149
 | 166, 141, 153, 126, 143, 120, 148
 | 165, 142, 153, 127, 142, 120, 147
 | 163, 146, 151, 130, 140, 121, 145
 | 164, 142, 153, 127, 143, 121, 146
 | 162, 143, 155, 131, 141, 121, 143
 | 160, 144, 154, 130, 140, 119, 149
 | 165, 141, 153, 126, 143, 120, 148
 | 164, 145, 154, 129, 140, 120, 145
 | 164, 144, 153, 128, 140, 119, 148
 | 164, 143, 155, 127, 141, 119, 147
 | 164, 144, 156, 132, 139, 119, 143
 | 166, 142, 156, 127, 142, 119, 144
 | 165, 142, 156, 128, 142, 120, 144
 | 164, 144, 157, 129, 140, 119, 144
 | 160, 144, 155, 130, 141, 119, 148
 | 161, 142, 155, 130, 143, 122, 143
 | 148, 135, 144, 128, 157, 141, 143
 | 151, 154, 160, 139, 130, 117, 146
 | 146, 166, 152, 150, 125, 118, 141
 | 145, 162, 150, 151, 126, 121, 141
 | 142, 156, 150, 152, 126, 122, 149
 | 143, 150, 152, 144, 129, 125, 153
 | 141, 158, 152, 150, 125, 121, 150
 | 140, 164, 150, 153, 124, 120, 145
 | 139, 136, 141, 133, 142, 166, 139
 | 139, 136, 141, 134, 142, 165, 139
 | 140, 166, 149, 154, 123, 120, 144
 | 150, 149, 166, 136, 131, 118, 146
 | 143, 156, 152, 150, 126, 120, 150
 | 156, 146, 161, 133, 136, 117, 147
 | 155, 148, 160, 135, 135, 117, 147
 | 156, 143, 159, 132, 139, 119, 149
 | 155, 145, 159, 132, 137, 118, 149
 | 152, 139, 148, 128, 141, 123, 166
 | 145, 146, 166, 135, 132, 119, 153
 | 141, 154, 157, 144, 127, 120, 153
 | 143, 154, 155, 144, 129, 122, 150
 | 146, 139, 148, 133, 143, 134, 153
 | 152, 135, 143, 125, 158, 136, 148
 | 153, 133, 143, 123, 166, 135, 144
 | 163, 143, 156, 128, 141, 119, 146
 | 152, 142, 154, 135, 141, 129, 144
 | 150, 139, 150, 131, 147, 130, 149
 | 153, 143, 154, 131, 141, 121, 154
 | 143, 142, 156, 133, 137, 125, 161
 | 142, 142, 154, 135, 134, 123, 166
 | 143, 140, 153, 132, 139, 125, 166
 | 143, 140, 153, 133, 139, 125, 164
 | 143, 143, 154, 135, 134, 123, 165
 | 143, 145, 154, 137, 133, 123, 162
 | 143, 142, 156, 134, 136, 124, 162
 | 143, 143, 155, 134, 135, 123, 163
 | 143, 142, 156, 133, 137, 125, 161
 | 144, 140, 154, 132, 139, 126, 161
 | 145, 146, 147, 141, 135, 136, 147
 | 144, 141, 154, 133, 138, 126, 161
 | 143, 139, 152, 131, 140, 126, 164
 | 143, 142, 156, 133, 137, 125, 161
 | 143, 141, 154, 132, 138, 124, 165
 | 143, 141, 154, 132, 138, 124, 166
 | 144, 136, 145, 131, 149, 138, 154
 | 142, 145, 156, 136, 133, 123, 162
 | 143, 143, 154, 136, 136, 125, 160
 | 143, 140, 153, 131, 140, 125, 165
 | 144, 140, 152, 133, 139, 126, 163
 | 144, 141, 152, 133, 139, 126, 162
 | 143, 141, 152, 134, 138, 125, 163 |];
 P=[1, 1, 1, 1, 1, 1, 1, 1, 1, 1, 1, 1, 1, 1, 1, 1, 1, 1, 1, 1, 1, 1, 1, 1, 1, 1, 1, 1, 1, 1, 1, 1, 1, 1, 1, 1, 1, 1, 1, 1, 1, 1, 1, 1, 1, 1, 1, 1, 1, 1, 1, 1, 1, 1, 1, 1, 1, 1, 1, 1, 1, 1, 1, 1, 1, 1, 1, 1, 1, 1, 1, 1, 1, 1, 1, 1, 1, 1, 1, 1, 1, 1, 1, 1, 1, 1, 1, 1, 1, 1, 1, 1, 1, 1, 1, 1, 1, 1, 1, 1, 1, 1, 1, 1, 1, 4, 4, 4, 2, 2, 4, 4, 4, 1, 1, 1, 1, 1, 1, 1, 1, 1, 1, 1, 1, 1, 1, 3, 3, 3, 2, 4, 1, 1, 1, 1, 1, 1, 1, 1, 1, 1, 1, 1, 1, 1, 1, 1, 1, 1, 1, 1, 1, 1, 1, 1, 1, 1, 1, 1, 1, 1, 1, 5, 3, 2, 2, 2, 2, 2, 2, 6, 6, 2, 3, 2, 3, 3, 3, 3, 7, 3, 2, 2, 7, 5, 5, 1, 3, 3, 3, 7, 7, 7, 7, 7, 7, 7, 7, 7, 7, 2, 7, 7, 7, 7, 7, 7, 7, 7, 7, 7, 7, 7 ];